NAME : xyz70
COMMENT : 70-point problem generated by rtrydev's generator
TYPE : WAREHOUSE
DIMENSION : 70
EDGE_WEIGHT_TYPE : EUC_2D
NODE_COORD_SECTION
1 533.0357142857143 299.9999925494197
2 150 106.24999875823661
3 187.5 106.24999875823661
4 150 137.49999751647323
5 187.5 137.49999751647323
6 150 168.74999627470984
7 187.5 168.74999627470984
8 150 199.99999503294646
9 187.5 199.99999503294646
10 150 231.24999379118307
11 187.5 231.24999379118307
12 150 262.4999925494197
13 187.5 262.4999925494197
14 300 106.24999875823661
15 337.5 106.24999875823661
16 300 137.49999751647323
17 337.5 137.49999751647323
18 300 168.74999627470984
19 337.5 168.74999627470984
20 300 199.99999503294646
21 337.5 199.99999503294646
22 300 231.24999379118307
23 337.5 231.24999379118307
24 300 262.4999925494197
25 337.5 262.4999925494197
26 450 106.24999875823661
27 487.5 106.24999875823661
28 450 137.49999751647323
29 487.5 137.49999751647323
30 450 168.74999627470984
31 487.5 168.74999627470984
32 450 199.99999503294646
33 487.5 199.99999503294646
34 450 231.24999379118307
35 487.5 231.24999379118307
36 450 262.4999925494197
37 487.5 262.4999925494197
38 600 106.24999875823661
39 637.5 106.24999875823661
40 600 137.49999751647323
41 637.5 137.49999751647323
42 600 168.74999627470984
43 637.5 168.74999627470984
44 600 199.99999503294646
45 637.5 199.99999503294646
46 600 231.24999379118307
47 637.5 231.24999379118307
48 600 262.4999925494197
49 637.5 262.4999925494197
50 750 106.24999875823661
51 787.5 106.24999875823661
52 750 137.49999751647323
53 787.5 137.49999751647323
54 750 168.74999627470984
55 787.5 168.74999627470984
56 750 199.99999503294646
57 787.5 199.99999503294646
58 750 231.24999379118307
59 787.5 231.24999379118307
60 750 262.4999925494197
61 787.5 262.4999925494197
62 900 106.24999875823661
63 937.5 106.24999875823661
64 900 137.49999751647323
65 937.5 137.49999751647323
66 900 168.74999627470984
67 937.5 168.74999627470984
68 900 199.99999503294646
69 937.5 199.99999503294646
70 900 231.24999379118307
71 937.5 231.24999379118307
EOF
